c description: Random 3-CNF over 10 variables and 50 clauses
c generator: CNFgen (0.9.0)
c copyright: (C) 2012-2020 Massimo Lauria <massimo.lauria@uniroma1.it>
c url: https://massimolauria.net/cnfgen
c command line: cnfgen -o 3SAT_n_10_m_50 randkcnf 3 10 50
c
p cnf 10 50
-3 4 -9 0
1 -5 -9 0
1 -5 9 0
6 7 10 0
2 5 9 0
-2 -3 5 0
1 -4 -8 0
-2 3 7 0
4 8 10 0
-2 -8 10 0
2 4 5 0
-5 8 9 0
5 7 -10 0
1 -2 3 0
-3 4 -5 0
-2 3 -4 0
4 -6 -8 0
1 5 9 0
-3 7 -9 0
-2 -5 9 0
-3 4 9 0
-2 8 10 0
-5 6 -8 0
-8 -9 -10 0
7 9 -10 0
2 -4 -5 0
2 -3 -4 0
-1 -3 9 0
6 9 10 0
5 8 -9 0
1 2 5 0
1 6 10 0
2 -6 -8 0
-1 2 -5 0
5 -8 9 0
3 -9 -10 0
3 -5 6 0
3 4 -5 0
2 -3 -10 0
3 6 -9 0
1 6 7 0
2 7 -8 0
-1 -3 -5 0
3 -7 8 0
7 8 -9 0
-3 -5 10 0
-2 5 -6 0
-2 -7 -10 0
-5 7 8 0
-6 7 8 0